
Gurobi 9.5.1 (win64) logging started Mon Sep 18 23:44:02 2023

Set parameter LogFile to value "consol_info_2"

Gurobi 9.5.1 (win64) logging started Thu Nov  9 18:07:21 2023

Set parameter LogFile to value "consol_info_2"

Gurobi 9.5.1 (win64) logging started Sat Nov 11 13:08:11 2023

Set parameter LogFile to value "consol_info_2"
